c CNF
c from Selman's wff generator
p cnf 10  45
2 1 10 0
-5 -10 6 0
-10 4 2 0
-3 9 -10 0
-3 -2 9 0
9 -6 -4 0
6 -2 1 0
-4 -10 2 0
-2 -9 5 0
-2 -1 -3 0
-7 -2 -1 0
3 -4 8 0
-4 -1 3 0
1 2 -5 0
-2 -1 -6 0
-8 5 7 0
-6 -4 -7 0
2 10 -8 0
3 -10 8 0
9 -2 -10 0
5 9 -4 0
10 2 6 0
-3 -5 -10 0
-8 -10 9 0
1 9 6 0
8 -6 3 0
-1 -6 -7 0
-9 -2 5 0
-8 -6 -1 0
-9 7 1 0
-7 9 8 0
4 -10 1 0
1 -3 9 0
-2 6 4 0
-8 1 4 0
9 1 2 0
-5 10 -7 0
-4 -7 -5 0
1 -9 -2 0
2 1 -9 0
-6 10 9 0
-4 7 1 0
7 5 -10 0
1 2 8 0
-1 -5 -10 0
